\ Model MTZ_MODEL
\ LP format - for model browsing. Use MPS format to capture full model detail.
Minimize
  p[0,1] + p[0,2] + p[0,3] + p[0,4] + p[1,0] + p[1,2] + p[1,3] + p[1,4]
   + p[2,0] + p[2,1] + p[2,3] + p[2,4] + p[3,0] + p[3,1] + p[3,2] + p[3,4]
   + p[4,0] + p[4,1] + p[4,2] + p[4,3] + dc[0] + dc[1] + dc[2] + dc[3]
   + dc[4] + 0 difc[0,0] + 0 difc[0,1]
Subject To
 p2: p[0,1] - 53.19007766328867 z[0,1] >= 0
 p3: p[0,1] - 58.81113209650993 z[0,1] - dcc[0,1] >= -58.81113209650993
 R2: dcc[0,1] <= 58.81113209650993
 R3: x[0,1,0] - x[1,0,0] + dif[0,1,0] >= 0
 R4: - x[0,1,0] + x[1,0,0] + dif[0,1,0] >= 0
 R5: x[0,1,1] - x[1,0,1] + dif[0,1,1] >= 0
 R6: - x[0,1,1] + x[1,0,1] + dif[0,1,1] >= 0
 p2: p[0,2] - 9.648506798300657 z[0,2] >= 0
 p3: p[0,2] - 14.81117193526985 z[0,2] - dcc[0,2] >= -14.81117193526985
 R9: dcc[0,2] <= 14.81117193526985
 R10: x[0,1,0] - x[2,0,0] + dif[0,2,0] >= 0
 R11: - x[0,1,0] + x[2,0,0] + dif[0,2,0] >= 0
 R12: x[0,1,1] - x[2,0,1] + dif[0,2,1] >= 0
 R13: - x[0,1,1] + x[2,0,1] + dif[0,2,1] >= 0
 p2: p[0,3] - 69.40377524267254 z[0,3] >= 0
 p3: p[0,3] - 80.10827543912887 z[0,3] - dcc[0,3] >= -80.10827543912887
 R16: dcc[0,3] <= 80.10827543912887
 R17: x[0,1,0] - x[3,0,0] + dif[0,3,0] >= 0
 R18: - x[0,1,0] + x[3,0,0] + dif[0,3,0] >= 0
 R19: x[0,1,1] - x[3,0,1] + dif[0,3,1] >= 0
 R20: - x[0,1,1] + x[3,0,1] + dif[0,3,1] >= 0
 p2: p[0,4] - 47.63523121334141 z[0,4] >= 0
 p3: p[0,4] - 55.87215074167072 z[0,4] - dcc[0,4] >= -55.87215074167072
 R23: dcc[0,4] <= 55.87215074167072
 R24: x[0,1,0] - x[4,0,0] + dif[0,4,0] >= 0
 R25: - x[0,1,0] + x[4,0,0] + dif[0,4,0] >= 0
 R26: x[0,1,1] - x[4,0,1] + dif[0,4,1] >= 0
 R27: - x[0,1,1] + x[4,0,1] + dif[0,4,1] >= 0
 p2: p[1,0] - 53.19007766328867 z[1,0] >= 0
 p3: p[1,0] - 58.81113209650993 z[1,0] - dcc[1,0] >= -58.81113209650993
 R30: dcc[1,0] <= 58.81113209650993
 R31: - x[0,0,0] + x[1,1,0] + dif[1,0,0] >= 0
 R32: x[0,0,0] - x[1,1,0] + dif[1,0,0] >= 0
 R33: - x[0,0,1] + x[1,1,1] + dif[1,0,1] >= 0
 R34: x[0,0,1] - x[1,1,1] + dif[1,0,1] >= 0
 p2: p[1,2] - 57.5356878544296 z[1,2] >= 0
 p3: p[1,2] - 65.95443280030487 z[1,2] - dcc[1,2] >= -65.95443280030487
 R37: dcc[1,2] <= 65.95443280030487
 R38: x[1,1,0] - x[2,0,0] + dif[1,2,0] >= 0
 R39: - x[1,1,0] + x[2,0,0] + dif[1,2,0] >= 0
 R40: x[1,1,1] - x[2,0,1] + dif[1,2,1] >= 0
 R41: - x[1,1,1] + x[2,0,1] + dif[1,2,1] >= 0
 p2: p[1,3] - 64.05376566281346 z[1,3] >= 0
 p3: p[1,3] - 77.27826849107504 z[1,3] - dcc[1,3] >= -77.27826849107504
 R44: dcc[1,3] <= 77.27826849107504
 R45: x[1,1,0] - x[3,0,0] + dif[1,3,0] >= 0
 R46: - x[1,1,0] + x[3,0,0] + dif[1,3,0] >= 0
 R47: x[1,1,1] - x[3,0,1] + dif[1,3,1] >= 0
 R48: - x[1,1,1] + x[3,0,1] + dif[1,3,1] >= 0
 p2: p[1,4] - 19.156821158034 z[1,4] >= 0
 p3: p[1,4] - 29.55916524630739 z[1,4] - dcc[1,4] >= -29.55916524630739
 R51: dcc[1,4] <= 29.55916524630739
 R52: x[1,1,0] - x[4,0,0] + dif[1,4,0] >= 0
 R53: - x[1,1,0] + x[4,0,0] + dif[1,4,0] >= 0
 R54: x[1,1,1] - x[4,0,1] + dif[1,4,1] >= 0
 R55: - x[1,1,1] + x[4,0,1] + dif[1,4,1] >= 0
 p2: p[2,0] - 9.648506798300657 z[2,0] >= 0
 p3: p[2,0] - 14.81117193526985 z[2,0] - dcc[2,0] >= -14.81117193526985
 R58: dcc[2,0] <= 14.81117193526985
 R59: - x[0,0,0] + x[2,1,0] + dif[2,0,0] >= 0
 R60: x[0,0,0] - x[2,1,0] + dif[2,0,0] >= 0
 R61: - x[0,0,1] + x[2,1,1] + dif[2,0,1] >= 0
 R62: x[0,0,1] - x[2,1,1] + dif[2,0,1] >= 0
 p2: p[2,1] - 57.5356878544296 z[2,1] >= 0
 p3: p[2,1] - 65.95443280030487 z[2,1] - dcc[2,1] >= -65.95443280030487
 R65: dcc[2,1] <= 65.95443280030487
 R66: - x[1,0,0] + x[2,1,0] + dif[2,1,0] >= 0
 R67: x[1,0,0] - x[2,1,0] + dif[2,1,0] >= 0
 R68: - x[1,0,1] + x[2,1,1] + dif[2,1,1] >= 0
 R69: x[1,0,1] - x[2,1,1] + dif[2,1,1] >= 0
 p2: p[2,3] - 60.98593564126563 z[2,3] >= 0
 p3: p[2,3] - 74.09666588867688 z[2,3] - dcc[2,3] >= -74.09666588867688
 R72: dcc[2,3] <= 74.09666588867688
 R73: x[2,1,0] - x[3,0,0] + dif[2,3,0] >= 0
 R74: - x[2,1,0] + x[3,0,0] + dif[2,3,0] >= 0
 R75: x[2,1,1] - x[3,0,1] + dif[2,3,1] >= 0
 R76: - x[2,1,1] + x[3,0,1] + dif[2,3,1] >= 0
 p2: p[2,4] - 47.26332234303441 z[2,4] >= 0
 p3: p[2,4] - 57.73635548084304 z[2,4] - dcc[2,4] >= -57.73635548084304
 R79: dcc[2,4] <= 57.73635548084304
 R80: x[2,1,0] - x[4,0,0] + dif[2,4,0] >= 0
 R81: - x[2,1,0] + x[4,0,0] + dif[2,4,0] >= 0
 R82: x[2,1,1] - x[4,0,1] + dif[2,4,1] >= 0
 R83: - x[2,1,1] + x[4,0,1] + dif[2,4,1] >= 0
 p2: p[3,0] - 69.40377524267254 z[3,0] >= 0
 p3: p[3,0] - 80.10827543912887 z[3,0] - dcc[3,0] >= -80.10827543912887
 R86: dcc[3,0] <= 80.10827543912887
 R87: - x[0,0,0] + x[3,1,0] + dif[3,0,0] >= 0
 R88: x[0,0,0] - x[3,1,0] + dif[3,0,0] >= 0
 R89: - x[0,0,1] + x[3,1,1] + dif[3,0,1] >= 0
 R90: x[0,0,1] - x[3,1,1] + dif[3,0,1] >= 0
 p2: p[3,1] - 64.05376566281346 z[3,1] >= 0
 p3: p[3,1] - 77.27826849107504 z[3,1] - dcc[3,1] >= -77.27826849107504
 R93: dcc[3,1] <= 77.27826849107504
 R94: - x[1,0,0] + x[3,1,0] + dif[3,1,0] >= 0
 R95: x[1,0,0] - x[3,1,0] + dif[3,1,0] >= 0
 R96: - x[1,0,1] + x[3,1,1] + dif[3,1,1] >= 0
 R97: x[1,0,1] - x[3,1,1] + dif[3,1,1] >= 0
 p2: p[3,2] - 60.98593564126562 z[3,2] >= 0
 p3: p[3,2] - 74.09666588867688 z[3,2] - dcc[3,2] >= -74.09666588867688
 R100: dcc[3,2] <= 74.09666588867688
 R101: - x[2,0,0] + x[3,1,0] + dif[3,2,0] >= 0
 R102: x[2,0,0] - x[3,1,0] + dif[3,2,0] >= 0
 R103: - x[2,0,1] + x[3,1,1] + dif[3,2,1] >= 0
 R104: x[2,0,1] - x[3,1,1] + dif[3,2,1] >= 0
 p2: p[3,4] - 39.00279476561304 z[3,4] >= 0
 p3: p[3,4] - 54.31315442761469 z[3,4] - dcc[3,4] >= -54.31315442761469
 R107: dcc[3,4] <= 54.31315442761469
 R108: x[3,1,0] - x[4,0,0] + dif[3,4,0] >= 0
 R109: - x[3,1,0] + x[4,0,0] + dif[3,4,0] >= 0
 R110: x[3,1,1] - x[4,0,1] + dif[3,4,1] >= 0
 R111: - x[3,1,1] + x[4,0,1] + dif[3,4,1] >= 0
 p2: p[4,0] - 47.63523121334141 z[4,0] >= 0
 p3: p[4,0] - 55.87215074167072 z[4,0] - dcc[4,0] >= -55.87215074167072
 R114: dcc[4,0] <= 55.87215074167072
 R115: - x[0,0,0] + x[4,1,0] + dif[4,0,0] >= 0
 R116: x[0,0,0] - x[4,1,0] + dif[4,0,0] >= 0
 R117: - x[0,0,1] + x[4,1,1] + dif[4,0,1] >= 0
 R118: x[0,0,1] - x[4,1,1] + dif[4,0,1] >= 0
 p2: p[4,1] - 19.156821158034 z[4,1] >= 0
 p3: p[4,1] - 29.55916524630739 z[4,1] - dcc[4,1] >= -29.55916524630739
 R121: dcc[4,1] <= 29.55916524630739
 R122: - x[1,0,0] + x[4,1,0] + dif[4,1,0] >= 0
 R123: x[1,0,0] - x[4,1,0] + dif[4,1,0] >= 0
 R124: - x[1,0,1] + x[4,1,1] + dif[4,1,1] >= 0
 R125: x[1,0,1] - x[4,1,1] + dif[4,1,1] >= 0
 p2: p[4,2] - 47.26332234303441 z[4,2] >= 0
 p3: p[4,2] - 57.73635548084304 z[4,2] - dcc[4,2] >= -57.73635548084304
 R128: dcc[4,2] <= 57.73635548084304
 R129: - x[2,0,0] + x[4,1,0] + dif[4,2,0] >= 0
 R130: x[2,0,0] - x[4,1,0] + dif[4,2,0] >= 0
 R131: - x[2,0,1] + x[4,1,1] + dif[4,2,1] >= 0
 R132: x[2,0,1] - x[4,1,1] + dif[4,2,1] >= 0
 p2: p[4,3] - 39.00279476561304 z[4,3] >= 0
 p3: p[4,3] - 54.31315442761469 z[4,3] - dcc[4,3] >= -54.31315442761469
 R135: dcc[4,3] <= 54.31315442761469
 R136: - x[3,0,0] + x[4,1,0] + dif[4,3,0] >= 0
 R137: x[3,0,0] - x[4,1,0] + dif[4,3,0] >= 0
 R138: - x[3,0,1] + x[4,1,1] + dif[4,3,1] >= 0
 R139: x[3,0,1] - x[4,1,1] + dif[4,3,1] >= 0
 R140: z[0,1] + z[0,2] + z[0,3] + z[0,4] = 1
 R141: z[1,0] + z[1,2] + z[1,3] + z[1,4] = 1
 R142: z[2,0] + z[2,1] + z[2,3] + z[2,4] = 1
 R143: z[3,0] + z[3,1] + z[3,2] + z[3,4] = 1
 R144: z[4,0] + z[4,1] + z[4,2] + z[4,3] = 1
 R145: z[1,0] + z[2,0] + z[3,0] + z[4,0] = 1
 R146: z[0,1] + z[2,1] + z[3,1] + z[4,1] = 1
 R147: z[0,2] + z[1,2] + z[3,2] + z[4,2] = 1
 R148: z[0,3] + z[1,3] + z[2,3] + z[4,3] = 1
 R149: z[0,4] + z[1,4] + z[2,4] + z[3,4] = 1
 rest7: z[0,1] + z[1,0] <= 1
 rest7: z[0,2] + z[2,0] <= 1
 rest7: z[0,3] + z[3,0] <= 1
 rest7: z[0,4] + z[4,0] <= 1
 rest7: z[0,1] + z[1,0] <= 1
 rest7: z[1,2] + z[2,1] <= 1
 rest7: z[1,3] + z[3,1] <= 1
 rest7: z[1,4] + z[4,1] <= 1
 rest7: z[0,2] + z[2,0] <= 1
 rest7: z[1,2] + z[2,1] <= 1
 rest7: z[2,3] + z[3,2] <= 1
 rest7: z[2,4] + z[4,2] <= 1
 rest7: z[0,3] + z[3,0] <= 1
 rest7: z[1,3] + z[3,1] <= 1
 rest7: z[2,3] + z[3,2] <= 1
 rest7: z[3,4] + z[4,3] <= 1
 rest7: z[0,4] + z[4,0] <= 1
 rest7: z[1,4] + z[4,1] <= 1
 rest7: z[2,4] + z[4,2] <= 1
 rest7: z[3,4] + z[4,3] <= 1
 R170: 5 z[1,2] + sc[1] - sc[2] <= 4
 R171: 5 z[1,3] + sc[1] - sc[3] <= 4
 R172: 5 z[1,4] + sc[1] - sc[4] <= 4
 R173: 5 z[2,1] - sc[1] + sc[2] <= 4
 R174: 5 z[2,3] + sc[2] - sc[3] <= 4
 R175: 5 z[2,4] + sc[2] - sc[4] <= 4
 R176: 5 z[3,1] - sc[1] + sc[3] <= 4
 R177: 5 z[3,2] - sc[2] + sc[3] <= 4
 R178: 5 z[3,4] + sc[3] - sc[4] <= 4
 R179: 5 z[4,1] - sc[1] + sc[4] <= 4
 R180: 5 z[4,2] - sc[2] + sc[4] <= 4
 R181: 5 z[4,3] - sc[3] + sc[4] <= 4
 rest10: sc[0] = 0
 rest11: sc[1] >= 1
 rest11: sc[2] >= 1
 rest11: sc[3] >= 1
 rest11: sc[4] >= 1
 u0: landa[0,0] - landa[0,1] + min[0] - max[0] = 0
 u1: min[0] + max[0] = 2
 u2: 2 u[0] + max[0] <= 2
 u3: - 2 u[0] + min[0] <= 0
 R191: dc[0] = 2.542266901505367
 R192: landa[0,0] - sublanda[0,0,1] - 3 s[0,0,0] >= -2
 R193: landa[0,0] - sublanda[0,0,1] + 3 s[0,0,0] <= 4
 R194: landa[0,0] - sublanda[0,0,2] - 3 s[0,0,1] >= -1
 R195: landa[0,0] - sublanda[0,0,2] + 3 s[0,0,1] <= 5
 R196: sublanda[0,0,0] - s[0,0,0] <= 0
 R197: sublanda[0,0,2] - s[0,0,1] <= 0
 R198: sublanda[0,0,1] - s[0,0,0] - s[0,0,1] <= 0
 R199: s[0,0,0] + s[0,0,1] = 1
 R200: sublanda[0,0,0] + sublanda[0,0,1] + sublanda[0,0,2] = 1
 seg1: x[0,0,0] - 17.90575789075295 sublanda[0,0,0]
   - 17.63140628843132 sublanda[0,0,1] - 18.81540574172324 sublanda[0,0,2]
   = 0
 seg1: x[0,0,1] - 34.89209828530183 sublanda[0,0,0]
   - 36.1332717010363 sublanda[0,0,1] - 36.59579255918959 sublanda[0,0,2]
   = 0
 R203: landa[0,1] - sublanda[0,1,1] - 3 s[0,1,0] >= -2
 R204: landa[0,1] - sublanda[0,1,1] + 3 s[0,1,0] <= 4
 R205: landa[0,1] - sublanda[0,1,2] - 3 s[0,1,1] >= -1
 R206: landa[0,1] - sublanda[0,1,2] + 3 s[0,1,1] <= 5
 R207: sublanda[0,1,0] - s[0,1,0] <= 0
 R208: sublanda[0,1,2] - s[0,1,1] <= 0
 R209: sublanda[0,1,1] - s[0,1,0] - s[0,1,1] <= 0
 R210: s[0,1,0] + s[0,1,1] = 1
 R211: sublanda[0,1,0] + sublanda[0,1,1] + sublanda[0,1,2] = 1
 seg1: x[0,1,0] - 17.90575789075295 sublanda[0,1,0]
   - 17.63140628843132 sublanda[0,1,1] - 18.81540574172324 sublanda[0,1,2]
   = 0
 seg1: x[0,1,1] - 34.89209828530183 sublanda[0,1,0]
   - 36.1332717010363 sublanda[0,1,1] - 36.59579255918959 sublanda[0,1,2]
   = 0
 R214: dc[1] <= 4.301786357624188
 envConv: mu[1,0] + mu[1,1] + mu[1,2] + mu[1,3] = 1
 inP1: x[1,0,0] - 7.006560052173752 mu[1,0] - 8.99987196337595 mu[1,1]
   - 11.30458771033664 mu[1,2] - 7.006560052173743 mu[1,3] = 0
 inP1: x[1,1,0] - 7.006560052173752 mu[1,0] - 8.99987196337595 mu[1,1]
   - 11.30458771033664 mu[1,2] - 7.006560052173743 mu[1,3] = 0
 inP1: x[1,0,1] - 92.68445716559543 mu[1,0] - 88.87236148325732 mu[1,1]
   - 92.50466807719359 mu[1,2] - 92.68445716559542 mu[1,3] = 0
 inP1: x[1,1,1] - 92.68445716559543 mu[1,0] - 88.87236148325732 mu[1,1]
   - 92.50466807719359 mu[1,2] - 92.68445716559542 mu[1,3] = 0
 R220: - x[1,0,0] + x[1,1,0] + difc[1,0] >= 0
 R221: x[1,0,0] - x[1,1,0] + difc[1,0] >= 0
 R222: - x[1,0,1] + x[1,1,1] + difc[1,1] >= 0
 R223: x[1,0,1] - x[1,1,1] + difc[1,1] >= 0
 R224: dc[2] <= 4.146682571066388
 R225: - x[2,0,0] + x[2,1,0] + difc[2,0] >= 0
 R226: x[2,0,0] - x[2,1,0] + difc[2,0] >= 0
 R227: - x[2,0,1] + x[2,1,1] + difc[2,1] >= 0
 R228: x[2,0,1] - x[2,1,1] + difc[2,1] >= 0
 R229: dc[3] <= 8.964047676344876
 R230: - x[3,0,0] + x[3,1,0] + difc[3,0] >= 0
 R231: x[3,0,0] - x[3,1,0] + difc[3,0] >= 0
 R232: - x[3,0,1] + x[3,1,1] + difc[3,1] >= 0
 R233: x[3,0,1] - x[3,1,1] + difc[3,1] >= 0
 R234: dc[4] <= 6.347343883153818
 envConv: mu[4,0] + mu[4,1] + mu[4,2] + mu[4,3] + mu[4,4] + mu[4,5]
   + mu[4,6] + mu[4,7] + mu[4,8] + mu[4,9] = 1
 inP1: x[4,0,0] - 35.44414556606461 mu[4,0] - 35.34117354332326 mu[4,1]
   - 33.84687210318504 mu[4,2] - 31.66044149680143 mu[4,3]
   - 29.80493690436871 mu[4,4] - 29.14856954632262 mu[4,5]
   - 29.99846100420366 mu[4,6] - 31.95693761937776 mu[4,7]
   - 34.10760641756193 mu[4,8] - 35.44414556606458 mu[4,9] = 0
 inP1: x[4,1,0] - 35.44414556606461 mu[4,0] - 35.34117354332326 mu[4,1]
   - 33.84687210318504 mu[4,2] - 31.66044149680143 mu[4,3]
   - 29.80493690436871 mu[4,4] - 29.14856954632262 mu[4,5]
   - 29.99846100420366 mu[4,6] - 31.95693761937776 mu[4,7]
   - 34.10760641756193 mu[4,8] - 35.44414556606458 mu[4,9] = 0
 inP1: x[4,0,1] - 84.61922436060765 mu[4,0] - 86.82122743750361 mu[4,1]
   - 88.44187051792828 mu[4,2] - 88.72283669310916 mu[4,3]
   - 87.53265876708808 mu[4,4] - 85.42823421880455 mu[4,5]
   - 83.39424668247392 mu[4,6] - 82.38242153159905 mu[4,7]
   - 82.86620299945805 mu[4,8] - 84.61922436060757 mu[4,9] = 0
 inP1: x[4,1,1] - 84.61922436060765 mu[4,0] - 86.82122743750361 mu[4,1]
   - 88.44187051792828 mu[4,2] - 88.72283669310916 mu[4,3]
   - 87.53265876708808 mu[4,4] - 85.42823421880455 mu[4,5]
   - 83.39424668247392 mu[4,6] - 82.38242153159905 mu[4,7]
   - 82.86620299945805 mu[4,8] - 84.61922436060757 mu[4,9] = 0
 R240: - x[4,0,0] + x[4,1,0] + difc[4,0] >= 0
 R241: x[4,0,0] - x[4,1,0] + difc[4,0] >= 0
 R242: - x[4,0,1] + x[4,1,1] + difc[4,1] >= 0
 R243: x[4,0,1] - x[4,1,1] + difc[4,1] >= 0
 qc0: [ - dcc[0,1] ^2 + dif[0,1,0] ^2 + dif[0,1,1] ^2 ] <= 0
 qc1: [ - dcc[0,2] ^2 + dif[0,2,0] ^2 + dif[0,2,1] ^2 ] <= 0
 qc2: [ - dcc[0,3] ^2 + dif[0,3,0] ^2 + dif[0,3,1] ^2 ] <= 0
 qc3: [ - dcc[0,4] ^2 + dif[0,4,0] ^2 + dif[0,4,1] ^2 ] <= 0
 qc4: [ - dcc[1,0] ^2 + dif[1,0,0] ^2 + dif[1,0,1] ^2 ] <= 0
 qc5: [ - dcc[1,2] ^2 + dif[1,2,0] ^2 + dif[1,2,1] ^2 ] <= 0
 qc6: [ - dcc[1,3] ^2 + dif[1,3,0] ^2 + dif[1,3,1] ^2 ] <= 0
 qc7: [ - dcc[1,4] ^2 + dif[1,4,0] ^2 + dif[1,4,1] ^2 ] <= 0
 qc8: [ - dcc[2,0] ^2 + dif[2,0,0] ^2 + dif[2,0,1] ^2 ] <= 0
 qc9: [ - dcc[2,1] ^2 + dif[2,1,0] ^2 + dif[2,1,1] ^2 ] <= 0
 qc10: [ - dcc[2,3] ^2 + dif[2,3,0] ^2 + dif[2,3,1] ^2 ] <= 0
 qc11: [ - dcc[2,4] ^2 + dif[2,4,0] ^2 + dif[2,4,1] ^2 ] <= 0
 qc12: [ - dcc[3,0] ^2 + dif[3,0,0] ^2 + dif[3,0,1] ^2 ] <= 0
 qc13: [ - dcc[3,1] ^2 + dif[3,1,0] ^2 + dif[3,1,1] ^2 ] <= 0
 qc14: [ - dcc[3,2] ^2 + dif[3,2,0] ^2 + dif[3,2,1] ^2 ] <= 0
 qc15: [ - dcc[3,4] ^2 + dif[3,4,0] ^2 + dif[3,4,1] ^2 ] <= 0
 qc16: [ - dcc[4,0] ^2 + dif[4,0,0] ^2 + dif[4,0,1] ^2 ] <= 0
 qc17: [ - dcc[4,1] ^2 + dif[4,1,0] ^2 + dif[4,1,1] ^2 ] <= 0
 qc18: [ - dcc[4,2] ^2 + dif[4,2,0] ^2 + dif[4,2,1] ^2 ] <= 0
 qc19: [ - dcc[4,3] ^2 + dif[4,3,0] ^2 + dif[4,3,1] ^2 ] <= 0
 qc20: [ - dc[1] ^2 + difc[1,0] ^2 + difc[1,1] ^2 ] <= 0
 inC1: - 59.99805617902224 x[2,0,0] - 66.16924542778067 x[2,0,1] + [
   x[2,0,0] ^2 + x[2,0,1] ^2 ] <= -1990.235202349449
 inC1: - 59.99805617902224 x[2,1,0] - 66.16924542778067 x[2,1,1] + [
   x[2,1,0] ^2 + x[2,1,1] ^2 ] <= -1990.235202349449
 qc23: [ - dc[2] ^2 + difc[2,0] ^2 + difc[2,1] ^2 ] <= 0
 inC1: - 157.3465072692081 x[3,0,0] - 159.820664565127 x[3,0,1] + [
   x[3,0,0] ^2 + x[3,0,1] ^2 ] <= -12555.0535052785
 inC1: - 157.3465072692081 x[3,1,0] - 159.820664565127 x[3,1,1] + [
   x[3,1,0] ^2 + x[3,1,1] ^2 ] <= -12555.0535052785
 qc26: [ - dc[3] ^2 + difc[3,0] ^2 + difc[3,1] ^2 ] <= 0
 qc27: [ - dc[4] ^2 + difc[4,0] ^2 + difc[4,1] ^2 ] <= 0
Bounds
 mu[1,0] <= 1
 mu[1,1] <= 1
 mu[1,2] <= 1
 mu[1,3] <= 1
 mu[4,0] <= 1
 mu[4,1] <= 1
 mu[4,2] <= 1
 mu[4,3] <= 1
 mu[4,4] <= 1
 mu[4,5] <= 1
 mu[4,6] <= 1
 mu[4,7] <= 1
 mu[4,8] <= 1
 mu[4,9] <= 1
 sublanda[0,0,0] <= 1
 sublanda[0,1,0] <= 1
 sublanda[0,0,1] <= 1
 sublanda[0,1,1] <= 1
 sublanda[0,0,2] <= 1
 sublanda[0,1,2] <= 1
 sc[0] <= 4
 sc[1] <= 4
 sc[2] <= 4
 sc[3] <= 4
 sc[4] <= 4
Binaries
 z[0,1] z[0,2] z[0,3] z[0,4] z[1,0] z[1,2] z[1,3] z[1,4] z[2,0] z[2,1]
 z[2,3] z[2,4] z[3,0] z[3,1] z[3,2] z[3,4] z[4,0] z[4,1] z[4,2] z[4,3]
 s[0,0,0] s[0,1,0] s[0,0,1] s[0,1,1] u[0]
End
